data;
set K:= K1 K2 K3 K4 K5 K6 K7 K8 K9 K10 K11 K12 K13 K14 K15 ;

set F:= F1 F2 F3 ;

set Q:= Q1 Q2 ;

param T:= 45;
param V: 
	K1  K2  K3  K4  K5  K6  K7  K8  K9  K10 K11 K12 K13 K14 K15 :=
Q1	1   1   1   1   1   1   1   1   1   0   0   0   0   0   0   
Q2	0   0   0   0   0   0   0   0   0   1   1   1   1   1   1   
; # if resorce k is of type q

param TF:= 
K1 6
K2 6
K3 6
K4 6
K5 6
K6 6
K7 6
K8 6
K9 6
K10 12
K11 12
K12 12
K13 12
K14 12
K15 12
; # number of continuous time slots resource can fly

param TR:= 
K1 2
K2 2
K3 2
K4 2
K5 2
K6 2
K7 2
K8 2
K9 2
K10 4
K11 4
K12 4
K13 4
K14 4
K15 4
; #  number of continuous time slots resource k needs to rest between flights

param P:= 
K1 36
K2 36
K3 36
K4 36
K5 36
K6 36
K7 36
K8 36
K9 36
K10 36
K11 36
K12 36
K13 36
K14 36
K15 36
; #  number of continuous time slots a pilot can be present including rest times for resource k 

param N:= 
K1 4
K2 4
K3 4
K4 4
K5 4
K6 4
K7 4
K8 4
K9 4
K10 2
K11 2
K12 1
K13 1
K14 2
K15 1
; # max number of flights resource k can fly in the total time period

param A: 
	K1  K2  K3  K4  K5  K6  K7  K8  K9  K10 K11 K12 K13 K14 K15 :=
1	1   1   1   1   1   1   1   1   1   1   1   0   1   1   0   
2	1   1   1   1   1   1   1   1   1   1   1   0   1   1   0   
3	1   1   1   1   1   1   1   1   1   1   1   0   1   1   0   
4	1   1   1   1   1   1   1   1   1   1   1   0   1   1   0   
5	1   1   1   1   1   1   1   1   1   1   1   0   1   1   0   
6	1   1   1   1   1   1   1   1   1   1   1   0   1   1   0   
7	1   1   1   1   1   1   1   1   1   1   1   0   1   1   0   
8	1   1   1   1   1   1   1   1   1   1   1   0   1   1   0   
9	1   1   1   1   1   1   1   1   1   1   1   0   1   1   0   
10	1   1   1   1   1   1   1   1   1   1   1   0   1   1   0   
11	1   1   1   1   1   1   1   1   1   1   1   1   1   1   0   
12	1   1   1   1   1   1   1   1   1   1   1   1   1   1   0   
13	1   1   1   1   1   1   1   1   1   1   1   1   1   1   0   
14	1   1   1   1   1   1   1   1   1   1   1   1   1   1   0   
15	1   1   1   1   1   1   1   1   1   1   1   1   1   1   1   
16	1   1   1   1   1   1   1   1   1   1   1   1   1   1   1   
17	1   1   1   1   1   1   1   1   1   1   1   1   1   1   1   
18	1   1   1   1   1   1   1   1   1   1   1   1   1   1   1   
19	1   1   1   1   1   1   1   1   1   1   1   1   1   1   1   
20	1   1   1   1   1   1   1   1   1   1   1   1   1   1   1   
21	1   1   1   1   1   1   1   1   1   1   1   1   1   1   1   
22	1   1   1   1   1   1   1   1   1   1   1   1   1   1   1   
23	1   1   1   1   1   1   1   1   1   1   1   1   1   1   1   
24	1   1   1   1   1   1   1   1   1   1   1   1   1   1   1   
25	1   1   1   1   1   1   1   1   1   1   1   1   1   1   1   
26	1   1   1   1   1   1   1   1   1   1   1   1   1   1   1   
27	1   1   1   1   1   1   1   1   1   1   1   1   1   1   1   
28	1   1   1   1   1   1   1   1   1   1   1   1   1   1   1   
29	1   1   1   1   1   1   1   1   1   1   1   1   1   1   1   
30	1   1   1   1   1   1   1   1   1   1   1   1   1   1   1   
31	1   1   1   1   1   1   1   1   1   1   1   1   1   1   1   
32	1   1   1   1   1   1   1   1   1   1   1   1   1   1   1   
33	1   1   1   1   1   1   1   1   1   1   1   1   1   1   1   
34	1   1   1   1   1   1   1   1   1   1   1   1   1   1   1   
35	1   1   1   1   1   1   1   1   1   1   1   1   1   1   1   
36	1   1   1   1   1   1   1   1   1   1   1   1   0   1   1   
37	1   1   1   1   1   1   1   1   1   1   1   1   0   1   1   
38	1   1   1   1   1   1   1   1   1   1   1   1   0   1   1   
39	1   1   1   1   1   1   1   1   1   1   1   1   0   1   1   
40	1   1   1   1   1   1   1   1   1   1   1   1   0   1   1   
41	1   1   1   1   1   1   1   1   1   1   1   1   0   1   1   
42	1   1   1   1   1   1   1   1   1   1   1   1   0   1   1   
43	1   1   1   1   1   1   1   1   1   1   1   1   0   1   1   
44	1   1   1   1   1   1   1   1   1   1   1   1   0   1   1   
45	1   1   1   1   1   1   1   1   1   1   1   1   0   1   1   
; # availability of resorce k in time slot t

param B: 
	F1  F2  F3  :=
Q1	0   0   0   
Q2	0   0   0   
; # if front f requires resources of type q

param U: 
	F1  F2  F3  :=
K1	0   0   0   
K2	0   0   0   
K3	0   0   0   
K4	0   0   0   
K5	0   0   0   
K6	0   0   0   
K7	0   0   0   
K8	0   0   0   
K9	0   0   0   
K10	2   2   2   
K11	1   1   1   
K12	0   0   0   
K13	1   1   1   
K14	0   0   0   
K15	2   2   2   
; # transit time of resource

param C:= 
K1 900
K2 900
K3 900
K4 900
K5 900
K6 1500
K7 1500
K8 4500
K9 4500
K10 5500
K11 5500
K12 5500
K13 5500
K14 5500
K15 5500
; #  water capacity of resource k

param S:= 
F1 9
F2 7
F3 7
; # max number of resources that can fly at front f in the same time slot

param D:= 

[*,*,F1 ]:  K1    K2    K3    K4    K5    K6    K7    K8    K9    K10   K11   K12   K13   K14   K15   :=
1           1.52  1.52  1.52  1.52  1.52  1.52  1.52  1.21  1.21  0.91  0.91  0.91  0.91  0.91  0.91  
2           1.52  1.52  1.52  1.52  1.52  1.52  1.52  1.21  1.21  0.91  0.91  0.91  0.91  0.91  0.91  
3           1.52  1.52  1.52  1.52  1.52  1.52  1.52  1.21  1.21  0.91  0.91  0.91  0.91  0.91  0.91  
4           1.52  1.52  1.52  1.52  1.52  1.52  1.52  1.21  1.21  0.91  0.91  0.91  0.91  0.91  0.91  
5           1.52  1.52  1.52  1.52  1.52  1.52  1.52  1.21  1.21  0.91  0.91  0.91  0.91  0.91  0.91  
6           1.52  1.52  1.52  1.52  1.52  1.52  1.52  1.21  1.21  0.91  0.91  0.91  0.91  0.91  0.91  
7           1.52  1.52  1.52  1.52  1.52  1.52  1.52  1.21  1.21  0.91  0.91  0.91  0.91  0.91  0.91  
8           1.52  1.52  1.52  1.52  1.52  1.52  1.52  1.21  1.21  0.91  0.91  0.91  0.91  0.91  0.91  
9           1.52  1.52  1.52  1.52  1.52  1.52  1.52  1.21  1.21  0.91  0.91  0.91  0.91  0.91  0.91  
10          1.52  1.52  1.52  1.52  1.52  1.52  1.52  1.21  1.21  0.91  0.91  0.91  0.91  0.91  0.91  
11          1.52  1.52  1.52  1.52  1.52  1.52  1.52  1.21  1.21  0.91  0.91  0.91  0.91  0.91  0.91  
12          1.52  1.52  1.52  1.52  1.52  1.52  1.52  1.21  1.21  0.91  0.91  0.91  0.91  0.91  0.91  
13          1.52  1.52  1.52  1.52  1.52  1.52  1.52  1.21  1.21  0.91  0.91  0.91  0.91  0.91  0.91  
14          1.52  1.52  1.52  1.52  1.52  1.52  1.52  1.21  1.21  0.91  0.91  0.91  0.91  0.91  0.91  
15          1.52  1.52  1.52  1.52  1.52  1.52  1.52  1.21  1.21  0.91  0.91  0.91  0.91  0.91  0.91  
16          1.52  1.52  1.52  1.52  1.52  1.52  1.52  1.21  1.21  0.91  0.91  0.91  0.91  0.91  0.91  
17          1.52  1.52  1.52  1.52  1.52  1.52  1.52  1.21  1.21  0.91  0.91  0.91  0.91  0.91  0.91  
18          1.52  1.52  1.52  1.52  1.52  1.52  1.52  1.21  1.21  0.91  0.91  0.91  0.91  0.91  0.91  
19          1.52  1.52  1.52  1.52  1.52  1.52  1.52  1.21  1.21  0.91  0.91  0.91  0.91  0.91  0.91  
20          1.52  1.52  1.52  1.52  1.52  1.52  1.52  1.21  1.21  0.91  0.91  0.91  0.91  0.91  0.91  
21          1.52  1.52  1.52  1.52  1.52  1.52  1.52  1.21  1.21  0.91  0.91  0.91  0.91  0.91  0.91  
22          1.52  1.52  1.52  1.52  1.52  1.52  1.52  1.21  1.21  0.91  0.91  0.91  0.91  0.91  0.91  
23          1.52  1.52  1.52  1.52  1.52  1.52  1.52  1.21  1.21  0.91  0.91  0.91  0.91  0.91  0.91  
24          1.52  1.52  1.52  1.52  1.52  1.52  1.52  1.21  1.21  0.91  0.91  0.91  0.91  0.91  0.91  
25          1.44  1.44  1.44  1.44  1.44  1.44  1.44  1.15  1.15  0.86  0.86  0.86  0.86  0.86  0.86  
26          1.44  1.44  1.44  1.44  1.44  1.44  1.44  1.15  1.15  0.86  0.86  0.86  0.86  0.86  0.86  
27          1.44  1.44  1.44  1.44  1.44  1.44  1.44  1.15  1.15  0.86  0.86  0.86  0.86  0.86  0.86  
28          1.44  1.44  1.44  1.44  1.44  1.44  1.44  1.15  1.15  0.86  0.86  0.86  0.86  0.86  0.86  
29          1.44  1.44  1.44  1.44  1.44  1.44  1.44  1.15  1.15  0.86  0.86  0.86  0.86  0.86  0.86  
30          1.44  1.44  1.44  1.44  1.44  1.44  1.44  1.15  1.15  0.86  0.86  0.86  0.86  0.86  0.86  
31          1.44  1.44  1.44  1.44  1.44  1.44  1.44  1.15  1.15  0.86  0.86  0.86  0.86  0.86  0.86  
32          1.44  1.44  1.44  1.44  1.44  1.44  1.44  1.15  1.15  0.86  0.86  0.86  0.86  0.86  0.86  
33          1.44  1.44  1.44  1.44  1.44  1.44  1.44  1.15  1.15  0.86  0.86  0.86  0.86  0.86  0.86  
34          1.52  1.52  1.52  1.52  1.52  1.52  1.52  1.21  1.21  0.91  0.91  0.91  0.91  0.91  0.91  
35          1.52  1.52  1.52  1.52  1.52  1.52  1.52  1.21  1.21  0.91  0.91  0.91  0.91  0.91  0.91  
36          1.52  1.52  1.52  1.52  1.52  1.52  1.52  1.21  1.21  0.91  0.91  0.91  0.91  0.91  0.91  
37          1.52  1.52  1.52  1.52  1.52  1.52  1.52  1.21  1.21  0.91  0.91  0.91  0.91  0.91  0.91  
38          1.52  1.52  1.52  1.52  1.52  1.52  1.52  1.21  1.21  0.91  0.91  0.91  0.91  0.91  0.91  
39          1.52  1.52  1.52  1.52  1.52  1.52  1.52  1.21  1.21  0.91  0.91  0.91  0.91  0.91  0.91  
40          1.52  1.52  1.52  1.52  1.52  1.52  1.52  1.21  1.21  0.91  0.91  0.91  0.91  0.91  0.91  
41          1.52  1.52  1.52  1.52  1.52  1.52  1.52  1.21  1.21  0.91  0.91  0.91  0.91  0.91  0.91  
42          1.52  1.52  1.52  1.52  1.52  1.52  1.52  1.21  1.21  0.91  0.91  0.91  0.91  0.91  0.91  
43          1.52  1.52  1.52  1.52  1.52  1.52  1.52  1.21  1.21  0.91  0.91  0.91  0.91  0.91  0.91  
44          1.52  1.52  1.52  1.52  1.52  1.52  1.52  1.21  1.21  0.91  0.91  0.91  0.91  0.91  0.91  
45          1.52  1.52  1.52  1.52  1.52  1.52  1.52  1.21  1.21  0.91  0.91  0.91  0.91  0.91  0.91  

[*,*,F2 ]:  K1    K2    K3    K4    K5    K6    K7    K8    K9    K10   K11   K12   K13   K14   K15   :=
1           1.54  1.54  1.54  1.54  1.54  1.54  1.54  1.22  1.22  0.92  0.92  0.92  0.92  0.92  0.92  
2           1.54  1.54  1.54  1.54  1.54  1.54  1.54  1.22  1.22  0.92  0.92  0.92  0.92  0.92  0.92  
3           1.54  1.54  1.54  1.54  1.54  1.54  1.54  1.22  1.22  0.92  0.92  0.92  0.92  0.92  0.92  
4           1.54  1.54  1.54  1.54  1.54  1.54  1.54  1.22  1.22  0.92  0.92  0.92  0.92  0.92  0.92  
5           1.54  1.54  1.54  1.54  1.54  1.54  1.54  1.22  1.22  0.92  0.92  0.92  0.92  0.92  0.92  
6           1.54  1.54  1.54  1.54  1.54  1.54  1.54  1.22  1.22  0.92  0.92  0.92  0.92  0.92  0.92  
7           1.54  1.54  1.54  1.54  1.54  1.54  1.54  1.22  1.22  0.92  0.92  0.92  0.92  0.92  0.92  
8           1.54  1.54  1.54  1.54  1.54  1.54  1.54  1.22  1.22  0.92  0.92  0.92  0.92  0.92  0.92  
9           1.54  1.54  1.54  1.54  1.54  1.54  1.54  1.22  1.22  0.92  0.92  0.92  0.92  0.92  0.92  
10          1.54  1.54  1.54  1.54  1.54  1.54  1.54  1.22  1.22  0.92  0.92  0.92  0.92  0.92  0.92  
11          1.54  1.54  1.54  1.54  1.54  1.54  1.54  1.22  1.22  0.92  0.92  0.92  0.92  0.92  0.92  
12          1.54  1.54  1.54  1.54  1.54  1.54  1.54  1.22  1.22  0.92  0.92  0.92  0.92  0.92  0.92  
13          1.54  1.54  1.54  1.54  1.54  1.54  1.54  1.22  1.22  0.92  0.92  0.92  0.92  0.92  0.92  
14          1.54  1.54  1.54  1.54  1.54  1.54  1.54  1.22  1.22  0.92  0.92  0.92  0.92  0.92  0.92  
15          1.54  1.54  1.54  1.54  1.54  1.54  1.54  1.22  1.22  0.92  0.92  0.92  0.92  0.92  0.92  
16          1.54  1.54  1.54  1.54  1.54  1.54  1.54  1.22  1.22  0.92  0.92  0.92  0.92  0.92  0.92  
17          1.54  1.54  1.54  1.54  1.54  1.54  1.54  1.22  1.22  0.92  0.92  0.92  0.92  0.92  0.92  
18          1.54  1.54  1.54  1.54  1.54  1.54  1.54  1.22  1.22  0.92  0.92  0.92  0.92  0.92  0.92  
19          1.54  1.54  1.54  1.54  1.54  1.54  1.54  1.22  1.22  0.92  0.92  0.92  0.92  0.92  0.92  
20          1.54  1.54  1.54  1.54  1.54  1.54  1.54  1.22  1.22  0.92  0.92  0.92  0.92  0.92  0.92  
21          1.54  1.54  1.54  1.54  1.54  1.54  1.54  1.22  1.22  0.92  0.92  0.92  0.92  0.92  0.92  
22          1.54  1.54  1.54  1.54  1.54  1.54  1.54  1.22  1.22  0.92  0.92  0.92  0.92  0.92  0.92  
23          1.54  1.54  1.54  1.54  1.54  1.54  1.54  1.22  1.22  0.92  0.92  0.92  0.92  0.92  0.92  
24          1.54  1.54  1.54  1.54  1.54  1.54  1.54  1.22  1.22  0.92  0.92  0.92  0.92  0.92  0.92  
25          1.46  1.46  1.46  1.46  1.46  1.46  1.46  1.16  1.16  0.87  0.87  0.87  0.87  0.87  0.87  
26          1.46  1.46  1.46  1.46  1.46  1.46  1.46  1.16  1.16  0.87  0.87  0.87  0.87  0.87  0.87  
27          1.46  1.46  1.46  1.46  1.46  1.46  1.46  1.16  1.16  0.87  0.87  0.87  0.87  0.87  0.87  
28          1.46  1.46  1.46  1.46  1.46  1.46  1.46  1.16  1.16  0.87  0.87  0.87  0.87  0.87  0.87  
29          1.46  1.46  1.46  1.46  1.46  1.46  1.46  1.16  1.16  0.87  0.87  0.87  0.87  0.87  0.87  
30          1.46  1.46  1.46  1.46  1.46  1.46  1.46  1.16  1.16  0.87  0.87  0.87  0.87  0.87  0.87  
31          1.46  1.46  1.46  1.46  1.46  1.46  1.46  1.16  1.16  0.87  0.87  0.87  0.87  0.87  0.87  
32          1.46  1.46  1.46  1.46  1.46  1.46  1.46  1.16  1.16  0.87  0.87  0.87  0.87  0.87  0.87  
33          1.46  1.46  1.46  1.46  1.46  1.46  1.46  1.16  1.16  0.87  0.87  0.87  0.87  0.87  0.87  
34          1.54  1.54  1.54  1.54  1.54  1.54  1.54  1.22  1.22  0.92  0.92  0.92  0.92  0.92  0.92  
35          1.54  1.54  1.54  1.54  1.54  1.54  1.54  1.22  1.22  0.92  0.92  0.92  0.92  0.92  0.92  
36          1.54  1.54  1.54  1.54  1.54  1.54  1.54  1.22  1.22  0.92  0.92  0.92  0.92  0.92  0.92  
37          1.54  1.54  1.54  1.54  1.54  1.54  1.54  1.22  1.22  0.92  0.92  0.92  0.92  0.92  0.92  
38          1.54  1.54  1.54  1.54  1.54  1.54  1.54  1.22  1.22  0.92  0.92  0.92  0.92  0.92  0.92  
39          1.54  1.54  1.54  1.54  1.54  1.54  1.54  1.22  1.22  0.92  0.92  0.92  0.92  0.92  0.92  
40          1.54  1.54  1.54  1.54  1.54  1.54  1.54  1.22  1.22  0.92  0.92  0.92  0.92  0.92  0.92  
41          1.54  1.54  1.54  1.54  1.54  1.54  1.54  1.22  1.22  0.92  0.92  0.92  0.92  0.92  0.92  
42          1.54  1.54  1.54  1.54  1.54  1.54  1.54  1.22  1.22  0.92  0.92  0.92  0.92  0.92  0.92  
43          1.54  1.54  1.54  1.54  1.54  1.54  1.54  1.22  1.22  0.92  0.92  0.92  0.92  0.92  0.92  
44          1.54  1.54  1.54  1.54  1.54  1.54  1.54  1.22  1.22  0.92  0.92  0.92  0.92  0.92  0.92  
45          1.54  1.54  1.54  1.54  1.54  1.54  1.54  1.22  1.22  0.92  0.92  0.92  0.92  0.92  0.92  

[*,*,F3 ]:  K1    K2    K3    K4    K5    K6    K7    K8    K9    K10   K11   K12   K13   K14   K15   :=
1           1.64  1.64  1.64  1.64  1.64  1.64  1.64  1.30  1.30  0.98  0.98  0.98  0.98  0.98  0.98  
2           1.64  1.64  1.64  1.64  1.64  1.64  1.64  1.30  1.30  0.98  0.98  0.98  0.98  0.98  0.98  
3           1.64  1.64  1.64  1.64  1.64  1.64  1.64  1.30  1.30  0.98  0.98  0.98  0.98  0.98  0.98  
4           1.64  1.64  1.64  1.64  1.64  1.64  1.64  1.30  1.30  0.98  0.98  0.98  0.98  0.98  0.98  
5           1.64  1.64  1.64  1.64  1.64  1.64  1.64  1.30  1.30  0.98  0.98  0.98  0.98  0.98  0.98  
6           1.64  1.64  1.64  1.64  1.64  1.64  1.64  1.30  1.30  0.98  0.98  0.98  0.98  0.98  0.98  
7           1.64  1.64  1.64  1.64  1.64  1.64  1.64  1.30  1.30  0.98  0.98  0.98  0.98  0.98  0.98  
8           1.64  1.64  1.64  1.64  1.64  1.64  1.64  1.30  1.30  0.98  0.98  0.98  0.98  0.98  0.98  
9           1.64  1.64  1.64  1.64  1.64  1.64  1.64  1.30  1.30  0.98  0.98  0.98  0.98  0.98  0.98  
10          1.64  1.64  1.64  1.64  1.64  1.64  1.64  1.30  1.30  0.98  0.98  0.98  0.98  0.98  0.98  
11          1.64  1.64  1.64  1.64  1.64  1.64  1.64  1.30  1.30  0.98  0.98  0.98  0.98  0.98  0.98  
12          1.64  1.64  1.64  1.64  1.64  1.64  1.64  1.30  1.30  0.98  0.98  0.98  0.98  0.98  0.98  
13          1.64  1.64  1.64  1.64  1.64  1.64  1.64  1.30  1.30  0.98  0.98  0.98  0.98  0.98  0.98  
14          1.64  1.64  1.64  1.64  1.64  1.64  1.64  1.30  1.30  0.98  0.98  0.98  0.98  0.98  0.98  
15          1.64  1.64  1.64  1.64  1.64  1.64  1.64  1.30  1.30  0.98  0.98  0.98  0.98  0.98  0.98  
16          1.64  1.64  1.64  1.64  1.64  1.64  1.64  1.30  1.30  0.98  0.98  0.98  0.98  0.98  0.98  
17          1.64  1.64  1.64  1.64  1.64  1.64  1.64  1.30  1.30  0.98  0.98  0.98  0.98  0.98  0.98  
18          1.64  1.64  1.64  1.64  1.64  1.64  1.64  1.30  1.30  0.98  0.98  0.98  0.98  0.98  0.98  
19          1.64  1.64  1.64  1.64  1.64  1.64  1.64  1.30  1.30  0.98  0.98  0.98  0.98  0.98  0.98  
20          1.64  1.64  1.64  1.64  1.64  1.64  1.64  1.30  1.30  0.98  0.98  0.98  0.98  0.98  0.98  
21          1.64  1.64  1.64  1.64  1.64  1.64  1.64  1.30  1.30  0.98  0.98  0.98  0.98  0.98  0.98  
22          1.64  1.64  1.64  1.64  1.64  1.64  1.64  1.30  1.30  0.98  0.98  0.98  0.98  0.98  0.98  
23          1.64  1.64  1.64  1.64  1.64  1.64  1.64  1.30  1.30  0.98  0.98  0.98  0.98  0.98  0.98  
24          1.64  1.64  1.64  1.64  1.64  1.64  1.64  1.30  1.30  0.98  0.98  0.98  0.98  0.98  0.98  
25          1.55  1.55  1.55  1.55  1.55  1.55  1.55  1.24  1.24  0.93  0.93  0.93  0.93  0.93  0.93  
26          1.55  1.55  1.55  1.55  1.55  1.55  1.55  1.24  1.24  0.93  0.93  0.93  0.93  0.93  0.93  
27          1.55  1.55  1.55  1.55  1.55  1.55  1.55  1.24  1.24  0.93  0.93  0.93  0.93  0.93  0.93  
28          1.55  1.55  1.55  1.55  1.55  1.55  1.55  1.24  1.24  0.93  0.93  0.93  0.93  0.93  0.93  
29          1.55  1.55  1.55  1.55  1.55  1.55  1.55  1.24  1.24  0.93  0.93  0.93  0.93  0.93  0.93  
30          1.55  1.55  1.55  1.55  1.55  1.55  1.55  1.24  1.24  0.93  0.93  0.93  0.93  0.93  0.93  
31          1.55  1.55  1.55  1.55  1.55  1.55  1.55  1.24  1.24  0.93  0.93  0.93  0.93  0.93  0.93  
32          1.55  1.55  1.55  1.55  1.55  1.55  1.55  1.24  1.24  0.93  0.93  0.93  0.93  0.93  0.93  
33          1.55  1.55  1.55  1.55  1.55  1.55  1.55  1.24  1.24  0.93  0.93  0.93  0.93  0.93  0.93  
34          1.64  1.64  1.64  1.64  1.64  1.64  1.64  1.30  1.30  0.98  0.98  0.98  0.98  0.98  0.98  
35          1.64  1.64  1.64  1.64  1.64  1.64  1.64  1.30  1.30  0.98  0.98  0.98  0.98  0.98  0.98  
36          1.64  1.64  1.64  1.64  1.64  1.64  1.64  1.30  1.30  0.98  0.98  0.98  0.98  0.98  0.98  
37          1.64  1.64  1.64  1.64  1.64  1.64  1.64  1.30  1.30  0.98  0.98  0.98  0.98  0.98  0.98  
38          1.64  1.64  1.64  1.64  1.64  1.64  1.64  1.30  1.30  0.98  0.98  0.98  0.98  0.98  0.98  
39          1.64  1.64  1.64  1.64  1.64  1.64  1.64  1.30  1.30  0.98  0.98  0.98  0.98  0.98  0.98  
40          1.64  1.64  1.64  1.64  1.64  1.64  1.64  1.30  1.30  0.98  0.98  0.98  0.98  0.98  0.98  
41          1.64  1.64  1.64  1.64  1.64  1.64  1.64  1.30  1.30  0.98  0.98  0.98  0.98  0.98  0.98  
42          1.64  1.64  1.64  1.64  1.64  1.64  1.64  1.30  1.30  0.98  0.98  0.98  0.98  0.98  0.98  
43          1.64  1.64  1.64  1.64  1.64  1.64  1.64  1.30  1.30  0.98  0.98  0.98  0.98  0.98  0.98  
44          1.64  1.64  1.64  1.64  1.64  1.64  1.64  1.30  1.30  0.98  0.98  0.98  0.98  0.98  0.98  
45          1.64  1.64  1.64  1.64  1.64  1.64  1.64  1.30  1.30  0.98  0.98  0.98  0.98  0.98  0.98  
; # downloads resource k can do at front f in time t if intermediate time slot

param E:= 

[*,*,F1 ]:  K1    K2    K3    K4    K5    K6    K7    K8    K9    K10   K11   K12   K13   K14   K15   :=
1           0.26  0.59  0.50  0.73  0.68  0.29  0.52  0.58  0.54  0.31  0.04  0.41  0.03  0.07  0.16  
2           0.26  0.59  0.50  0.73  0.68  0.29  0.52  0.58  0.54  0.31  0.04  0.41  0.03  0.07  0.16  
3           0.26  0.59  0.50  0.73  0.68  0.29  0.52  0.58  0.54  0.31  0.04  0.41  0.03  0.07  0.16  
4           0.26  0.59  0.50  0.73  0.68  0.29  0.52  0.58  0.54  0.31  0.04  0.41  0.03  0.07  0.16  
5           0.26  0.59  0.50  0.73  0.68  0.29  0.52  0.58  0.54  0.31  0.04  0.41  0.03  0.07  0.16  
6           0.26  0.59  0.50  0.73  0.68  0.29  0.52  0.58  0.54  0.31  0.04  0.41  0.03  0.07  0.16  
7           0.26  0.59  0.50  0.73  0.68  0.29  0.52  0.58  0.54  0.31  0.04  0.41  0.03  0.07  0.16  
8           0.26  0.59  0.50  0.73  0.68  0.29  0.52  0.58  0.54  0.31  0.04  0.41  0.03  0.07  0.16  
9           0.26  0.59  0.50  0.73  0.68  0.29  0.52  0.58  0.54  0.31  0.04  0.41  0.03  0.07  0.16  
10          0.26  0.59  0.50  0.73  0.68  0.29  0.52  0.58  0.54  0.31  0.04  0.41  0.03  0.07  0.16  
11          0.26  0.59  0.50  0.73  0.68  0.29  0.52  0.58  0.54  0.31  0.04  0.41  0.03  0.07  0.16  
12          0.26  0.59  0.50  0.73  0.68  0.29  0.52  0.58  0.54  0.31  0.04  0.41  0.03  0.07  0.16  
13          0.26  0.59  0.50  0.73  0.68  0.29  0.52  0.58  0.54  0.31  0.04  0.41  0.03  0.07  0.16  
14          0.26  0.59  0.50  0.73  0.68  0.29  0.52  0.58  0.54  0.31  0.04  0.41  0.03  0.07  0.16  
15          0.26  0.59  0.50  0.73  0.68  0.29  0.52  0.58  0.54  0.31  0.04  0.41  0.03  0.07  0.16  
16          0.26  0.59  0.50  0.73  0.68  0.29  0.52  0.58  0.54  0.31  0.04  0.41  0.03  0.07  0.16  
17          0.26  0.59  0.50  0.73  0.68  0.29  0.52  0.58  0.54  0.31  0.04  0.41  0.03  0.07  0.16  
18          0.26  0.59  0.50  0.73  0.68  0.29  0.52  0.58  0.54  0.31  0.04  0.41  0.03  0.07  0.16  
19          0.26  0.59  0.50  0.73  0.68  0.29  0.52  0.58  0.54  0.31  0.04  0.41  0.03  0.07  0.16  
20          0.26  0.59  0.50  0.73  0.68  0.29  0.52  0.58  0.54  0.31  0.04  0.41  0.03  0.07  0.16  
21          0.26  0.59  0.50  0.73  0.68  0.29  0.52  0.58  0.54  0.31  0.04  0.41  0.03  0.07  0.16  
22          0.26  0.59  0.50  0.73  0.68  0.29  0.52  0.58  0.54  0.31  0.04  0.41  0.03  0.07  0.16  
23          0.26  0.59  0.50  0.73  0.68  0.29  0.52  0.58  0.54  0.31  0.04  0.41  0.03  0.07  0.16  
24          0.26  0.59  0.50  0.73  0.68  0.29  0.52  0.58  0.54  0.31  0.04  0.41  0.03  0.07  0.16  
25          0.25  0.56  0.48  0.69  0.65  0.27  0.49  0.55  0.52  0.29  0.03  0.39  0.03  0.07  0.16  
26          0.25  0.56  0.48  0.69  0.65  0.27  0.49  0.55  0.52  0.29  0.03  0.39  0.03  0.07  0.16  
27          0.25  0.56  0.48  0.69  0.65  0.27  0.49  0.55  0.52  0.29  0.03  0.39  0.03  0.07  0.16  
28          0.25  0.56  0.48  0.69  0.65  0.27  0.49  0.55  0.52  0.29  0.03  0.39  0.03  0.07  0.16  
29          0.25  0.56  0.48  0.69  0.65  0.27  0.49  0.55  0.52  0.29  0.03  0.39  0.03  0.07  0.16  
30          0.25  0.56  0.48  0.69  0.65  0.27  0.49  0.55  0.52  0.29  0.03  0.39  0.03  0.07  0.16  
31          0.25  0.56  0.48  0.69  0.65  0.27  0.49  0.55  0.52  0.29  0.03  0.39  0.03  0.07  0.16  
32          0.25  0.56  0.48  0.69  0.65  0.27  0.49  0.55  0.52  0.29  0.03  0.39  0.03  0.07  0.16  
33          0.25  0.56  0.48  0.69  0.65  0.27  0.49  0.55  0.52  0.29  0.03  0.39  0.03  0.07  0.16  
34          0.26  0.59  0.50  0.73  0.68  0.29  0.52  0.58  0.54  0.31  0.04  0.41  0.03  0.07  0.16  
35          0.26  0.59  0.50  0.73  0.68  0.29  0.52  0.58  0.54  0.31  0.04  0.41  0.03  0.07  0.16  
36          0.26  0.59  0.50  0.73  0.68  0.29  0.52  0.58  0.54  0.31  0.04  0.41  0.03  0.07  0.16  
37          0.26  0.59  0.50  0.73  0.68  0.29  0.52  0.58  0.54  0.31  0.04  0.41  0.03  0.07  0.16  
38          0.26  0.59  0.50  0.73  0.68  0.29  0.52  0.58  0.54  0.31  0.04  0.41  0.03  0.07  0.16  
39          0.26  0.59  0.50  0.73  0.68  0.29  0.52  0.58  0.54  0.31  0.04  0.41  0.03  0.07  0.16  
40          0.26  0.59  0.50  0.73  0.68  0.29  0.52  0.58  0.54  0.31  0.04  0.41  0.03  0.07  0.16  
41          0.26  0.59  0.50  0.73  0.68  0.29  0.52  0.58  0.54  0.31  0.04  0.41  0.03  0.07  0.16  
42          0.26  0.59  0.50  0.73  0.68  0.29  0.52  0.58  0.54  0.31  0.04  0.41  0.03  0.07  0.16  
43          0.26  0.59  0.50  0.73  0.68  0.29  0.52  0.58  0.54  0.31  0.04  0.41  0.03  0.07  0.16  
44          0.26  0.59  0.50  0.73  0.68  0.29  0.52  0.58  0.54  0.31  0.04  0.41  0.03  0.07  0.16  
45          0.26  0.59  0.50  0.73  0.68  0.29  0.52  0.58  0.54  0.31  0.04  0.41  0.03  0.07  0.16  

[*,*,F2 ]:  K1    K2    K3    K4    K5    K6    K7    K8    K9    K10   K11   K12   K13   K14   K15   :=
1           0.28  0.60  0.54  0.66  0.60  0.34  0.60  0.65  0.51  0.34  0.05  0.40  0.00  0.14  0.09  
2           0.28  0.60  0.54  0.66  0.60  0.34  0.60  0.65  0.51  0.34  0.05  0.40  0.00  0.14  0.09  
3           0.28  0.60  0.54  0.66  0.60  0.34  0.60  0.65  0.51  0.34  0.05  0.40  0.00  0.14  0.09  
4           0.28  0.60  0.54  0.66  0.60  0.34  0.60  0.65  0.51  0.34  0.05  0.40  0.00  0.14  0.09  
5           0.28  0.60  0.54  0.66  0.60  0.34  0.60  0.65  0.51  0.34  0.05  0.40  0.00  0.14  0.09  
6           0.28  0.60  0.54  0.66  0.60  0.34  0.60  0.65  0.51  0.34  0.05  0.40  0.00  0.14  0.09  
7           0.28  0.60  0.54  0.66  0.60  0.34  0.60  0.65  0.51  0.34  0.05  0.40  0.00  0.14  0.09  
8           0.28  0.60  0.54  0.66  0.60  0.34  0.60  0.65  0.51  0.34  0.05  0.40  0.00  0.14  0.09  
9           0.28  0.60  0.54  0.66  0.60  0.34  0.60  0.65  0.51  0.34  0.05  0.40  0.00  0.14  0.09  
10          0.28  0.60  0.54  0.66  0.60  0.34  0.60  0.65  0.51  0.34  0.05  0.40  0.00  0.14  0.09  
11          0.28  0.60  0.54  0.66  0.60  0.34  0.60  0.65  0.51  0.34  0.05  0.40  0.00  0.14  0.09  
12          0.28  0.60  0.54  0.66  0.60  0.34  0.60  0.65  0.51  0.34  0.05  0.40  0.00  0.14  0.09  
13          0.28  0.60  0.54  0.66  0.60  0.34  0.60  0.65  0.51  0.34  0.05  0.40  0.00  0.14  0.09  
14          0.28  0.60  0.54  0.66  0.60  0.34  0.60  0.65  0.51  0.34  0.05  0.40  0.00  0.14  0.09  
15          0.28  0.60  0.54  0.66  0.60  0.34  0.60  0.65  0.51  0.34  0.05  0.40  0.00  0.14  0.09  
16          0.28  0.60  0.54  0.66  0.60  0.34  0.60  0.65  0.51  0.34  0.05  0.40  0.00  0.14  0.09  
17          0.28  0.60  0.54  0.66  0.60  0.34  0.60  0.65  0.51  0.34  0.05  0.40  0.00  0.14  0.09  
18          0.28  0.60  0.54  0.66  0.60  0.34  0.60  0.65  0.51  0.34  0.05  0.40  0.00  0.14  0.09  
19          0.28  0.60  0.54  0.66  0.60  0.34  0.60  0.65  0.51  0.34  0.05  0.40  0.00  0.14  0.09  
20          0.28  0.60  0.54  0.66  0.60  0.34  0.60  0.65  0.51  0.34  0.05  0.40  0.00  0.14  0.09  
21          0.28  0.60  0.54  0.66  0.60  0.34  0.60  0.65  0.51  0.34  0.05  0.40  0.00  0.14  0.09  
22          0.28  0.60  0.54  0.66  0.60  0.34  0.60  0.65  0.51  0.34  0.05  0.40  0.00  0.14  0.09  
23          0.28  0.60  0.54  0.66  0.60  0.34  0.60  0.65  0.51  0.34  0.05  0.40  0.00  0.14  0.09  
24          0.28  0.60  0.54  0.66  0.60  0.34  0.60  0.65  0.51  0.34  0.05  0.40  0.00  0.14  0.09  
25          0.26  0.57  0.51  0.63  0.57  0.32  0.57  0.62  0.49  0.32  0.04  0.38  0.00  0.13  0.09  
26          0.26  0.57  0.51  0.63  0.57  0.32  0.57  0.62  0.49  0.32  0.04  0.38  0.00  0.13  0.09  
27          0.26  0.57  0.51  0.63  0.57  0.32  0.57  0.62  0.49  0.32  0.04  0.38  0.00  0.13  0.09  
28          0.26  0.57  0.51  0.63  0.57  0.32  0.57  0.62  0.49  0.32  0.04  0.38  0.00  0.13  0.09  
29          0.26  0.57  0.51  0.63  0.57  0.32  0.57  0.62  0.49  0.32  0.04  0.38  0.00  0.13  0.09  
30          0.26  0.57  0.51  0.63  0.57  0.32  0.57  0.62  0.49  0.32  0.04  0.38  0.00  0.13  0.09  
31          0.26  0.57  0.51  0.63  0.57  0.32  0.57  0.62  0.49  0.32  0.04  0.38  0.00  0.13  0.09  
32          0.26  0.57  0.51  0.63  0.57  0.32  0.57  0.62  0.49  0.32  0.04  0.38  0.00  0.13  0.09  
33          0.26  0.57  0.51  0.63  0.57  0.32  0.57  0.62  0.49  0.32  0.04  0.38  0.00  0.13  0.09  
34          0.28  0.60  0.54  0.66  0.60  0.34  0.60  0.65  0.51  0.34  0.05  0.40  0.00  0.14  0.09  
35          0.28  0.60  0.54  0.66  0.60  0.34  0.60  0.65  0.51  0.34  0.05  0.40  0.00  0.14  0.09  
36          0.28  0.60  0.54  0.66  0.60  0.34  0.60  0.65  0.51  0.34  0.05  0.40  0.00  0.14  0.09  
37          0.28  0.60  0.54  0.66  0.60  0.34  0.60  0.65  0.51  0.34  0.05  0.40  0.00  0.14  0.09  
38          0.28  0.60  0.54  0.66  0.60  0.34  0.60  0.65  0.51  0.34  0.05  0.40  0.00  0.14  0.09  
39          0.28  0.60  0.54  0.66  0.60  0.34  0.60  0.65  0.51  0.34  0.05  0.40  0.00  0.14  0.09  
40          0.28  0.60  0.54  0.66  0.60  0.34  0.60  0.65  0.51  0.34  0.05  0.40  0.00  0.14  0.09  
41          0.28  0.60  0.54  0.66  0.60  0.34  0.60  0.65  0.51  0.34  0.05  0.40  0.00  0.14  0.09  
42          0.28  0.60  0.54  0.66  0.60  0.34  0.60  0.65  0.51  0.34  0.05  0.40  0.00  0.14  0.09  
43          0.28  0.60  0.54  0.66  0.60  0.34  0.60  0.65  0.51  0.34  0.05  0.40  0.00  0.14  0.09  
44          0.28  0.60  0.54  0.66  0.60  0.34  0.60  0.65  0.51  0.34  0.05  0.40  0.00  0.14  0.09  
45          0.28  0.60  0.54  0.66  0.60  0.34  0.60  0.65  0.51  0.34  0.05  0.40  0.00  0.14  0.09  

[*,*,F3 ]:  K1    K2    K3    K4    K5    K6    K7    K8    K9    K10   K11   K12   K13   K14   K15   :=
1           0.34  0.52  0.51  0.75  0.57  0.20  0.59  0.68  0.50  0.40  0.03  0.45  0.05  0.14  0.16  
2           0.34  0.52  0.51  0.75  0.57  0.20  0.59  0.68  0.50  0.40  0.03  0.45  0.05  0.14  0.16  
3           0.34  0.52  0.51  0.75  0.57  0.20  0.59  0.68  0.50  0.40  0.03  0.45  0.05  0.14  0.16  
4           0.34  0.52  0.51  0.75  0.57  0.20  0.59  0.68  0.50  0.40  0.03  0.45  0.05  0.14  0.16  
5           0.34  0.52  0.51  0.75  0.57  0.20  0.59  0.68  0.50  0.40  0.03  0.45  0.05  0.14  0.16  
6           0.34  0.52  0.51  0.75  0.57  0.20  0.59  0.68  0.50  0.40  0.03  0.45  0.05  0.14  0.16  
7           0.34  0.52  0.51  0.75  0.57  0.20  0.59  0.68  0.50  0.40  0.03  0.45  0.05  0.14  0.16  
8           0.34  0.52  0.51  0.75  0.57  0.20  0.59  0.68  0.50  0.40  0.03  0.45  0.05  0.14  0.16  
9           0.34  0.52  0.51  0.75  0.57  0.20  0.59  0.68  0.50  0.40  0.03  0.45  0.05  0.14  0.16  
10          0.34  0.52  0.51  0.75  0.57  0.20  0.59  0.68  0.50  0.40  0.03  0.45  0.05  0.14  0.16  
11          0.34  0.52  0.51  0.75  0.57  0.20  0.59  0.68  0.50  0.40  0.03  0.45  0.05  0.14  0.16  
12          0.34  0.52  0.51  0.75  0.57  0.20  0.59  0.68  0.50  0.40  0.03  0.45  0.05  0.14  0.16  
13          0.34  0.52  0.51  0.75  0.57  0.20  0.59  0.68  0.50  0.40  0.03  0.45  0.05  0.14  0.16  
14          0.34  0.52  0.51  0.75  0.57  0.20  0.59  0.68  0.50  0.40  0.03  0.45  0.05  0.14  0.16  
15          0.34  0.52  0.51  0.75  0.57  0.20  0.59  0.68  0.50  0.40  0.03  0.45  0.05  0.14  0.16  
16          0.34  0.52  0.51  0.75  0.57  0.20  0.59  0.68  0.50  0.40  0.03  0.45  0.05  0.14  0.16  
17          0.34  0.52  0.51  0.75  0.57  0.20  0.59  0.68  0.50  0.40  0.03  0.45  0.05  0.14  0.16  
18          0.34  0.52  0.51  0.75  0.57  0.20  0.59  0.68  0.50  0.40  0.03  0.45  0.05  0.14  0.16  
19          0.34  0.52  0.51  0.75  0.57  0.20  0.59  0.68  0.50  0.40  0.03  0.45  0.05  0.14  0.16  
20          0.34  0.52  0.51  0.75  0.57  0.20  0.59  0.68  0.50  0.40  0.03  0.45  0.05  0.14  0.16  
21          0.34  0.52  0.51  0.75  0.57  0.20  0.59  0.68  0.50  0.40  0.03  0.45  0.05  0.14  0.16  
22          0.34  0.52  0.51  0.75  0.57  0.20  0.59  0.68  0.50  0.40  0.03  0.45  0.05  0.14  0.16  
23          0.34  0.52  0.51  0.75  0.57  0.20  0.59  0.68  0.50  0.40  0.03  0.45  0.05  0.14  0.16  
24          0.34  0.52  0.51  0.75  0.57  0.20  0.59  0.68  0.50  0.40  0.03  0.45  0.05  0.14  0.16  
25          0.33  0.50  0.48  0.72  0.54  0.19  0.56  0.64  0.47  0.38  0.03  0.43  0.05  0.13  0.15  
26          0.33  0.50  0.48  0.72  0.54  0.19  0.56  0.64  0.47  0.38  0.03  0.43  0.05  0.13  0.15  
27          0.33  0.50  0.48  0.72  0.54  0.19  0.56  0.64  0.47  0.38  0.03  0.43  0.05  0.13  0.15  
28          0.33  0.50  0.48  0.72  0.54  0.19  0.56  0.64  0.47  0.38  0.03  0.43  0.05  0.13  0.15  
29          0.33  0.50  0.48  0.72  0.54  0.19  0.56  0.64  0.47  0.38  0.03  0.43  0.05  0.13  0.15  
30          0.33  0.50  0.48  0.72  0.54  0.19  0.56  0.64  0.47  0.38  0.03  0.43  0.05  0.13  0.15  
31          0.33  0.50  0.48  0.72  0.54  0.19  0.56  0.64  0.47  0.38  0.03  0.43  0.05  0.13  0.15  
32          0.33  0.50  0.48  0.72  0.54  0.19  0.56  0.64  0.47  0.38  0.03  0.43  0.05  0.13  0.15  
33          0.33  0.50  0.48  0.72  0.54  0.19  0.56  0.64  0.47  0.38  0.03  0.43  0.05  0.13  0.15  
34          0.34  0.52  0.51  0.75  0.57  0.20  0.59  0.68  0.50  0.40  0.03  0.45  0.05  0.14  0.16  
35          0.34  0.52  0.51  0.75  0.57  0.20  0.59  0.68  0.50  0.40  0.03  0.45  0.05  0.14  0.16  
36          0.34  0.52  0.51  0.75  0.57  0.20  0.59  0.68  0.50  0.40  0.03  0.45  0.05  0.14  0.16  
37          0.34  0.52  0.51  0.75  0.57  0.20  0.59  0.68  0.50  0.40  0.03  0.45  0.05  0.14  0.16  
38          0.34  0.52  0.51  0.75  0.57  0.20  0.59  0.68  0.50  0.40  0.03  0.45  0.05  0.14  0.16  
39          0.34  0.52  0.51  0.75  0.57  0.20  0.59  0.68  0.50  0.40  0.03  0.45  0.05  0.14  0.16  
40          0.34  0.52  0.51  0.75  0.57  0.20  0.59  0.68  0.50  0.40  0.03  0.45  0.05  0.14  0.16  
41          0.34  0.52  0.51  0.75  0.57  0.20  0.59  0.68  0.50  0.40  0.03  0.45  0.05  0.14  0.16  
42          0.34  0.52  0.51  0.75  0.57  0.20  0.59  0.68  0.50  0.40  0.03  0.45  0.05  0.14  0.16  
43          0.34  0.52  0.51  0.75  0.57  0.20  0.59  0.68  0.50  0.40  0.03  0.45  0.05  0.14  0.16  
44          0.34  0.52  0.51  0.75  0.57  0.20  0.59  0.68  0.50  0.40  0.03  0.45  0.05  0.14  0.16  
45          0.34  0.52  0.51  0.75  0.57  0.20  0.59  0.68  0.50  0.40  0.03  0.45  0.05  0.14  0.16  
; # downloads resource k can do at front f in time t if starting or ending flight

param W: 
	F1        F2        F3        :=
1	1014.78   1014.78   1014.78   
2	4059.10   4059.10   4059.10   
3	4059.10   4059.10   4059.10   
4	4059.10   4059.10   4059.10   
5	4059.10   4059.10   4059.10   
6	4059.10   4059.10   4059.10   
7	4059.10   4059.10   4059.10   
8	4059.10   4059.10   4059.10   
9	4059.10   4059.10   4059.10   
10	4059.10   4059.10   4059.10   
11	4059.10   4059.10   4059.10   
12	4059.10   4059.10   4059.10   
13	4059.10   4059.10   4059.10   
14	4059.10   4059.10   4059.10   
15	4059.10   4059.10   4059.10   
16	4059.10   4059.10   4059.10   
17	4059.10   4059.10   4059.10   
18	4059.10   4059.10   4059.10   
19	1804.05   1804.05   1804.05   
20	1804.05   1804.05   1804.05   
21	1804.05   1804.05   1804.05   
22	1804.05   1804.05   1804.05   
23	1804.05   1804.05   1804.05   
24	1804.05   1804.05   1804.05   
25	1804.05   1804.05   1804.05   
26	1804.05   1804.05   1804.05   
27	1804.05   1804.05   1804.05   
28	1804.05   1804.05   1804.05   
29	1804.05   1804.05   1804.05   
30	1804.05   1804.05   1804.05   
31	1804.05   1804.05   1804.05   
32	1804.05   1804.05   1804.05   
33	1804.05   1804.05   1804.05   
34	1804.05   1804.05   1804.05   
35	1804.05   1804.05   1804.05   
36	1804.05   1804.05   1804.05   
37	1804.05   1804.05   1804.05   
38	1804.05   1804.05   1804.05   
39	1804.05   1804.05   1804.05   
40	1804.05   1804.05   1804.05   
41	1804.05   1804.05   1804.05   
42	1804.05   1804.05   1804.05   
43	1804.05   1804.05   1804.05   
44	1804.05   1804.05   1804.05   
45	451.01    451.01    451.01    
; # water needed at front f in time slot t

param M := 100000000; 

param a1:= 10000000;

param a2:= 100;

param a3:= 0.0001;
